Version identifier: 22.1.0.0 | 2022-03-09 | 1a383f8ce
CPXPARAM_Threads                                 1
CPXPARAM_MIP_Strategy_VariableSelect             3
CPXPARAM_TimeLimit                               596.09115667699996
1 of 1 MIP starts provided solutions.
MIP start 'm1' defined initial solution with objective 293.0000.
Tried aggregator 1 time.
MIP Presolve eliminated 13 rows and 0 columns.
MIP Presolve modified 178 coefficients.
Reduced MIP has 1813 rows, 7800 columns, and 137529 nonzeros.
Reduced MIP has 7800 binaries, 0 generals, 0 SOSs, and 0 indicators.
Presolve time = 0.18 sec. (232.52 ticks)
Probing time = 0.03 sec. (27.40 ticks)
Tried aggregator 1 time.
Detecting symmetries...
MIP Presolve modified 9 coefficients.
Reduced MIP has 1813 rows, 7800 columns, and 137835 nonzeros.
Reduced MIP has 7800 binaries, 0 generals, 0 SOSs, and 0 indicators.
Presolve time = 0.15 sec. (178.13 ticks)
Probing time = 0.03 sec. (27.42 ticks)
Clique table members: 680.
MIP emphasis: balance optimality and feasibility.
MIP search method: dynamic search.
Parallel mode: none, using 1 thread.
Root relaxation solution time = 4.14 sec. (5500.13 ticks)

        Nodes                                         Cuts/
   Node  Left     Objective  IInf  Best Integer    Best Bound    ItCnt     Gap

*     0+    0                          293.0000    45150.0000              --- 
      0     0      300.0000  1129      293.0000      300.0000    13181    2.39%
*     0+    0                          300.0000      300.0000             0.00%
      0     0        cutoff            300.0000      300.0000    13181    0.00%
Elapsed time = 11.18 sec. (13824.47 ticks, tree = 0.01 MB, solutions = 2)

Root node processing (before b&c):
  Real time             =   11.18 sec. (13825.22 ticks)
Sequential b&c:
  Real time             =    0.00 sec. (0.00 ticks)
                          ------------
Total (root+branch&cut) =   11.18 sec. (13825.22 ticks)
Primal:	300
Dual:	300
Status:	Optimal
Time:	11.24
Sequence:
	20
	13
	21
	22
	21
	24
	16
	11
	13
	14
	9
	14
	13
	11
	16
	24
	14
	9
	6
	12
	16
	9
	24
	6
	16
	17
	24
	20
	16
	9
	21
	23
	14
	2
	10
	19
	1
	12
	6
	13
	17
	23
	21
	13
	17
	13
	10
	16
	15
	13
	10
	22
	21
	12
	11
	13
	14
	24
	15
	24
	6
	16
	11
	19
	10
	9
	21
	23
	17
	24
	14
	13
	11
	12
	4
	23
	11
	19
	20
	19
	11
	13
	14
	24
	17
	13
	6
	16
	11
	19
	10
	13
	17
	13
	12
	10
	2
	21
	16
	10
	2
	20
	16
	21
	22
	20
	13
	21
	8
	10
	13
	23
	15
	16
	10
	24
	1
	12
	21
	24
	9
	10
	16
	21
	9
	9
	6
	16
	5
	9
	20
	16
	9
	21
	13
	11
	16
	21
	13
	11
	19
	14
	13
	11
	19
	10
	8
	6
	13
	21
	2
	16
	7
	23
	15
	23
	14
	13
	11
	16
	6
	8
	20
	9
	14
	13
	21
	22
	14
	24
	20
	8
	6
	16
	10
	9
	14
	13
	16
	11
	24
	14
	23
	15
	23
	6
	16
	22
	21
	13
	21
	2
	7
	19
	11
	12
	13
	5
	22
	7
	16
	10
	3
	10
	24
	14
	22
	21
	13
	7
	8
	10
	19
	7
	22
	5
	19
	11
	13
	10
	16
	15
	24
	6
	19
	11
	16
	6
	23
	17
	13
	14
	9
	13
	14
	2
	21
	13
	13
	15
	24
	14
	23
	15
	13
	6
	16
	11
	19
	6
	13
	15
	24
	14
	13
	11
	16
	24
	17
	13
	10
	16
	18
	16
	10
	2
	19
	10
	16
	2
	23
	14
	2
	12
	10
	2
	14
	24
	21
	2
	16
	6
	16
	11
	13
	14
	3
	10
	24
	11
	16
	21
	0
	1
	24
	14
	8
	7
	24
	20
